20
12.5 45.3
87.6 23.1
45.0 55.0
10.0 10.0
34.2 78.9
67.3 12.2
29.4 65.1
80.1 40.3
50.0 50.0
19.8 88.0
92.5 5.4
11.0 60.6
25.7 70.2
44.4 30.1
66.6 66.6
33.3 33.3
77.7 77.7
22.2 22.2
55.5 11.1
99.9 99.9
